
%FILE DATA:	Soccer Computational Problem for MiniZinc Models	%
%AUTHOR:	Jack Wall	%
%CONTACT:  	116397063@umail.ucc.ie			%
%LAST UPDATE:	03/02/2020, 16:22:15						%
%DESCRIPTION: 	208 games played with 32 games left				%


n=16; %number of teams

%Games to play
games=[|11,16|11,8|6,9|1,7|9,15|15,8|11,12|3,8|9,4|8,9|9,12|3,13|15,12|11,3|5,8|2,9|11,14|4,5|4,16|13,14|16,6|6,15|2,4|10,11|5,7|6,12|13,4|1,11|5,2|7,12|7,6|3,1|];

%Initial points
iPoints=[37,35,25,36,35,34,28,39,23,35,30,30,51,38,35,49];

%POSITION CONSTRAINTS
% [|teamID, operator, position|...]
% operators index:
%  1 for =  operator
%  2 for >  operator
%  3 for >= operator
%  4 for <  operator
%  5 for <= operator
positionConstraints=[|13,3,1|16,5,2|8,2,2|];